6 48 4 10
17 17 10 8 9 13 14 9 16 13 6 1 3 14 12 8 15 7 18 3 20 8 7 13 13 18 2 12 14 1 2 20 13 7 1 7 20 4 3 11 16 9 20 5 2 5 15 15 
6.26 0.07 6.08 5.43 5.16 4 7.56 3.45 5.61 1.91 2.61 5.02 0.29 1.46 5.12 4.8 0.45 1.48 6.31 5.72 6.4 7.32 3.84 3.9 6.54 6.14 3.09 5.39 0.98 7.01 6.86 6.74 3.37 4.29 6.41 3.27 1.18 1.18 3.3 0.76 6.69 6.22 0.57 2.61 6.01 4.18 7.58 5.42 
1.37 1.63 7.59 6.83 1.16 2.31 7.07 3.74 3.46 6.15 3.26 7.44 4.03 1.57 5.37 1.36 6.31 3.91 1.85 7.19 2.03 5.14 7.05 7.74 4.87 5.71 1.17 3.12 0.67 2.26 4.77 1.69 4.53 4.99 0.78 7.19 6.54 0.6 0.24 2.48 7.26 5.05 3.47 4.32 6.06 6.79 3.72 1.47 
4.62 3.8 4.04 0.45 0.28 5.5 7.19 0.46 7.99 3.78 3.09 5.51 2.84 1.7 5.49 6.51 6.79 5.76 1.38 2.06 1.42 6.27 2.29 3.52 4.64 2.24 1.83 4.16 4.7 3.72 6.43 2.85 3.65 5.14 2.61 0.62 3.65 3.94 6.06 2.64 5.77 2.8 5.16 3.18 0.52 3.11 4.61 3.34 
3.42 7.88 0.5 0.53 0.41 3.3 5.15 4.94 2.09 3.8 3.33 1.4 4.45 7.42 3.38 5.83 2.24 0.05 5.81 1.27 5.83 3.86 1.74 5.19 2.86 4.5 2.24 2.51 4.5 0.03 4.14 6.29 6.2 1.79 2.35 7.71 0.95 3.91 5.59 7.98 4.58 0.51 2.18 3.18 2.16 7.65 1.07 3.38 
4 4 4 4 4 4 4 4 4 4 4 4 4 4 4 4 4 4 4 4 4 4 4 4 4 4 4 4 4 4 4 4 4 4 4 4 4 4 4 4 4 4 4 4 4 4 4 4 
2.55 1.22 5.57 4.8 6.75 7.59 6.49 3.21 5.9 6.7 1.03 0.02 7.52 4.06 1.02 6.76 5.33 6.66 0.92 2.23 6.29 3.28 7.44 1.73 1.6 3.55 7.14 1.05 1.2 1.97 0.68 4.78 1.05 0.72 0.03 5.25 7.19 1.24 3.2 6.14 7.36 3.4 2.56 7.39 5.19 1.74 6.02 2.98 
1 1 1 1 1 1 1 1 1 1 1 1 1 1 1 1 1 1 1 1 1 1 1 1 1 1 1 1 1 1 1 1 1 1 1 1 1 1 1 1 1 1 1 1 1 1 1 1 
1 1 1 1 1 1 1 1 1 1 1 1 1 1 1 1 1 1 1 1 1 1 1 1 1 1 1 1 1 1 1 1 1 1 1 1 1 1 1 1 1 1 1 1 1 1 1 1 
1 1 1 1 1 1 1 1 1 1 1 1 1 1 1 1 1 1 1 1 1 1 1 1 1 1 1 1 1 1 1 1 1 1 1 1 1 1 1 1 1 1 1 1 1 1 1 1 
1 1 1 1 1 1 1 1 1 1 1 1 1 1 1 1 1 1 1 1 1 1 1 1 1 1 1 1 1 1 1 1 1 1 1 1 1 1 1 1 1 1 1 1 1 1 1 1 
1 1 1 1 1 1 1 1 1 1 1 1 1 1 1 1 1 1 1 1 1 1 1 1 1 1 1 1 1 1 1 1 1 1 1 1 1 1 1 1 1 1 1 1 1 1 1 1 
1 1 1 1 1 1 1 1 1 1 1 1 1 1 1 1 1 1 1 1 1 1 1 1 1 1 1 1 1 1 1 1 1 1 1 1 1 1 1 1 1 1 1 1 1 1 1 1 
0.01 0.01 0.01 0.01 0.01 0.01 0.01 0.01 0.01 0.01 0.01 0.01 0.01 0.01 0.01 0.01 0.01 0.01 0.01 0.01 0.01 0.01 0.01 0.01 0.01 0.01 0.01 0.01 0.01 0.01 0.01 0.01 0.01 0.01 0.01 0.01 0.01 0.01 0.01 0.01 0.01 0.01 0.01 0.01 0.01 0.01 0.01 0.01 
0.02 0.02 0.02 0.02 0.02 0.02 0.02 0.02 0.02 0.02 0.02 0.02 0.02 0.02 0.02 0.02 0.02 0.02 0.02 0.02 0.02 0.02 0.02 0.02 0.02 0.02 0.02 0.02 0.02 0.02 0.02 0.02 0.02 0.02 0.02 0.02 0.02 0.02 0.02 0.02 0.02 0.02 0.02 0.02 0.02 0.02 0.02 0.02 
0.03 0.03 0.03 0.03 0.03 0.03 0.03 0.03 0.03 0.03 0.03 0.03 0.03 0.03 0.03 0.03 0.03 0.03 0.03 0.03 0.03 0.03 0.03 0.03 0.03 0.03 0.03 0.03 0.03 0.03 0.03 0.03 0.03 0.03 0.03 0.03 0.03 0.03 0.03 0.03 0.03 0.03 0.03 0.03 0.03 0.03 0.03 0.03 
0.04 0.04 0.04 0.04 0.04 0.04 0.04 0.04 0.04 0.04 0.04 0.04 0.04 0.04 0.04 0.04 0.04 0.04 0.04 0.04 0.04 0.04 0.04 0.04 0.04 0.04 0.04 0.04 0.04 0.04 0.04 0.04 0.04 0.04 0.04 0.04 0.04 0.04 0.04 0.04 0.04 0.04 0.04 0.04 0.04 0.04 0.04 0.04 
0.05 0.05 0.05 0.05 0.05 0.05 0.05 0.05 0.05 0.05 0.05 0.05 0.05 0.05 0.05 0.05 0.05 0.05 0.05 0.05 0.05 0.05 0.05 0.05 0.05 0.05 0.05 0.05 0.05 0.05 0.05 0.05 0.05 0.05 0.05 0.05 0.05 0.05 0.05 0.05 0.05 0.05 0.05 0.05 0.05 0.05 0.05 0.05 
1 1 1 1 1 1 1 1 1 1 1 1 1 1 1 1 1 1 1 1 1 1 1 1 1 1 1 1 1 1 1 1 1 1 1 1 1 1 1 1 1 1 1 1 1 1 1 1 
